unsat
(define-fun inv-f ((x Int) (m Int) (n Int)) Bool (and (>= (+ x (* (- 1) m)) 0) (or (not (>= n 1)) (and (>= m 0) (not (>= (+ m (* (- 1) n)) 0))))))
0.08user 0.00system 0:00.09elapsed 98%CPU (0avgtext+0avgdata 27532maxresident)k
8inputs+8outputs (0major+1561minor)pagefaults 0swaps
